data;


param d:= 100;
param r:=5;
param p:=0.400000;
param M:=1000;
param U:=
         1         1        2.163959e+00
         2         1        4.959514e-01
         3         1        7.766811e-01
         4         1        4.061029e-02
         5         1        9.394028e-01
         6         1        5.056594e-01
         7         1       -1.006398e+00
         8         1        3.301820e-01
         9         1        1.152025e+00
        10         1        5.503992e-01
        11         1        9.125192e-01
        12         1       -4.635673e-01
        13         1       -1.154172e+00
        14         1       -4.802770e-02
        15         1       -1.993384e+00
        16         1        2.877806e-01
        17         1       -2.280362e-01
        18         1        1.084652e+00
        19         1       -2.243343e+00
        20         1        1.091338e+00
        21         1       -2.775474e-01
        22         1       -3.164647e-01
        23         1       -1.901863e+00
        24         1       -1.614535e+00
        25         1       -1.387366e+00
        26         1        2.013896e+00
        27         1       -9.270681e-01
        28         1        5.032955e-02
        29         1        3.164150e-02
        30         1       -7.037795e-01
        31         1       -3.000933e-01
        32         1       -5.703628e-02
        33         1       -7.015447e-01
        34         1       -1.919934e+00
        35         1        2.797002e-01
        36         1        3.514674e-01
        37         1        6.807886e-01
        38         1        1.635929e+00
        39         1        1.103403e+00
        40         1       -8.909105e-01
        41         1       -5.632288e-01
        42         1       -1.648459e-01
        43         1        3.406167e-01
        44         1       -5.598880e-01
        45         1        1.036879e+00
        46         1       -7.362335e-01
        47         1       -1.040886e+00
        48         1        4.832627e-02
        49         1        1.170409e-01
        50         1       -1.503595e+00
        51         1       -1.219421e-01
        52         1       -6.144633e-01
        53         1       -2.358570e-01
        54         1       -1.215529e+00
        55         1       -1.440762e+00
        56         1       -6.148670e-01
        57         1        9.839135e-01
        58         1        1.268557e-01
        59         1       -2.250083e+00
        60         1       -9.849665e-01
        61         1       -2.956340e-01
        62         1       -1.387001e+00
        63         1        1.697357e+00
        64         1       -1.133556e+00
        65         1        2.197605e-01
        66         1        1.753983e+00
        67         1       -7.343641e-01
        68         1       -2.106739e+00
        69         1        5.307753e-01
        70         1        2.146179e-01
        71         1        1.194636e+00
        72         1        2.079976e+00
        73         1       -1.512740e+00
        74         1        4.865741e-01
        75         1        1.787013e+00
        76         1        2.065451e-01
        77         1       -5.498954e-01
        78         1       -1.338710e+00
        79         1        7.831260e-01
        80         1       -1.375576e+00
        81         1       -2.281253e-01
        82         1       -6.848610e-01
        83         1       -5.348026e-01
        84         1        1.193780e+00
        85         1       -1.462312e+00
        86         1        1.966592e-01
        87         1       -6.938591e-01
        88         1       -6.778349e-02
        89         1        4.397016e-01
        90         1        2.856256e-01
        91         1        6.647881e-02
        92         1        5.445802e-01
        93         1       -9.493873e-01
        94         1        4.842994e-01
        95         1       -1.213136e+00
        96         1        1.357891e-01
        97         1        1.014556e+00
        98         1       -1.363614e-01
        99         1       -1.476806e+00
       100         1       -3.609694e-01
         1         2        6.236811e-01
         2         2       -1.022751e+00
         3         2       -2.693444e-01
         4         2       -1.286122e+00
         5         2       -8.460310e-01
         6         2       -7.697730e-01
         7         2        5.291574e-01
         8         2        6.909690e-01
         9         2       -5.716817e-01
        10         2       -1.264943e-01
        11         2       -6.085626e-01
        12         2       -1.170751e+00
        13         2        3.277997e-01
        14         2        4.496614e-01
        15         2        1.446781e+00
        16         2       -1.402628e-01
        17         2       -4.395423e-01
        18         2       -1.630802e+00
        19         2       -4.575599e-01
        20         2       -3.901178e-01
        21         2        1.294533e+00
        22         2       -1.916626e-01
        23         2        9.025931e-01
        24         2        6.575729e-01
        25         2       -1.022985e+00
        26         2        1.420018e+00
        27         2       -3.517204e-03
        28         2       -2.835751e-01
        29         2       -4.281488e-02
        30         2       -1.152690e+00
        31         2       -1.214719e+00
        32         2       -1.686982e+00
        33         2        6.918490e-01
        34         2        1.065844e+00
        35         2        4.394367e-02
        36         2        2.732978e-02
        37         2        4.697304e-01
        38         2       -3.583160e-01
        39         2       -9.483048e-01
        40         2       -3.574070e-01
        41         2       -1.191590e-01
        42         2        1.733434e+00
        43         2       -5.382351e-01
        44         2        1.676414e+00
        45         2       -5.371518e-01
        46         2        1.164458e+00
        47         2        5.822246e-01
        48         2       -9.141869e-01
        49         2       -2.157588e+00
        50         2       -3.495523e-01
        51         2        6.479802e-02
        52         2        3.947962e-01
        53         2       -5.012319e-01
        54         2       -1.465214e+00
        55         2        9.131984e-01
        56         2        3.004846e+00
        57         2       -6.018427e-01
        58         2       -7.982684e-01
        59         2       -2.095280e-01
        60         2       -3.900875e-01
        61         2       -4.811509e-01
        62         2        3.828712e-01
        63         2       -1.406692e+00
        64         2        2.473260e-01
        65         2        6.838603e-01
        66         2        8.546067e-01
        67         2        1.207273e+00
        68         2       -7.859503e-01
        69         2        2.277000e-01
        70         2       -1.245931e+00
        71         2       -2.085516e+00
        72         2       -1.564961e+00
        73         2        8.960024e-01
        74         2       -2.197076e-01
        75         2       -3.774399e-01
        76         2        1.764871e+00
        77         2       -1.292878e+00
        78         2       -1.430472e+00
        79         2        1.372963e+00
        80         2       -1.108988e+00
        81         2       -1.889655e+00
        82         2        2.198240e+00
        83         2        2.867708e-02
        84         2       -4.045176e-01
        85         2        5.559241e-01
        86         2       -1.352793e+00
        87         2        1.555319e+00
        88         2       -6.275004e-01
        89         2        5.401747e-02
        90         2       -2.251796e-01
        91         2        2.248801e-01
        92         2        1.018422e+00
        93         2        1.255952e+00
        94         2       -3.155493e+00
        95         2        2.303999e+00
        96         2       -3.442669e-01
        97         2        2.056744e+00
        98         2        4.145680e-01
        99         2        1.009526e+00
       100         2       -7.364103e-02
         1         3       -8.456020e-01
         2         3       -1.670133e-01
         3         3       -3.447142e-01
         4         3        1.205608e+00
         5         3       -1.000094e+00
         6         3       -6.618571e-01
         7         3        7.783021e-01
         8         3        2.393353e-01
         9         3        9.224732e-01
        10         3       -8.102336e-01
        11         3       -1.277042e+00
        12         3        1.095233e+00
        13         3       -1.072871e+00
        14         3       -5.767619e-01
        15         3        9.145580e-01
        16         3        1.021575e+00
        17         3       -8.150619e-01
        18         3        1.059603e+00
        19         3       -1.518947e+00
        20         3        2.554658e-01
        21         3       -5.280107e-01
        22         3        9.170495e-01
        23         3       -9.547470e-02
        24         3       -2.503272e-01
        25         3       -4.165569e-01
        26         3       -1.924079e+00
        27         3        6.887285e-01
        28         3        4.366010e-02
        29         3        3.488819e-01
        30         3        1.459325e+00
        31         3       -1.437598e+00
        32         3        5.280528e-01
        33         3       -3.796087e-01
        34         3        8.042043e-01
        35         3       -1.137238e+00
        36         3        2.557877e-01
        37         3        8.296638e-01
        38         3        8.866474e-01
        39         3       -5.498069e-01
        40         3        5.926681e-01
        41         3        3.402232e-01
        42         3        1.052290e-02
        43         3        1.405142e+00
        44         3       -1.133487e+00
        45         3       -2.200715e+00
        46         3        1.655942e+00
        47         3        5.298839e-01
        48         3       -7.649617e-01
        49         3        1.295968e+00
        50         3       -2.816759e-01
        51         3       -7.653739e-01
        52         3        1.457974e+00
        53         3       -6.079129e-01
        54         3        2.351288e+00
        55         3       -1.330584e-01
        56         3       -6.738155e-01
        57         3        1.329104e+00
        58         3        9.945049e-01
        59         3        9.289971e-03
        60         3        1.455284e-01
        61         3       -1.445051e+00
        62         3       -4.957329e-02
        63         3       -1.367452e+00
        64         3        1.205821e+00
        65         3       -2.193818e-01
        66         3        1.172923e+00
        67         3       -1.226421e+00
        68         3       -9.546232e-02
        69         3       -1.015066e+00
        70         3       -6.740306e-01
        71         3       -1.308497e+00
        72         3       -2.052777e-01
        73         3       -1.818595e+00
        74         3       -2.300555e-01
        75         3        1.628291e-01
        76         3       -1.151355e+00
        77         3       -1.065249e+00
        78         3       -7.085711e-01
        79         3        4.509187e-01
        80         3        1.540724e+00
        81         3        6.828738e-01
        82         3        8.345733e-01
        83         3       -8.230665e-01
        84         3       -3.420302e-01
        85         3       -1.200035e+00
        86         3        1.013000e+00
        87         3       -6.423703e-02
        88         3       -9.774733e-01
        89         3       -4.736512e-03
        90         3       -1.682062e+00
        91         3       -4.627099e-01
        92         3       -1.076687e+00
        93         3       -1.569437e+00
        94         3       -5.518389e-01
        95         3       -9.634862e-01
        96         3       -2.462373e-01
        97         3        4.925111e-01
        98         3        5.066989e-02
        99         3       -6.406008e-01
       100         3        4.511174e-01
         1         4       -6.446319e-01
         2         4       -2.102096e+00
         3         4       -2.299814e-01
         4         4       -1.791573e-01
         5         4        1.180663e+00
         6         4        6.761102e-03
         7         4       -1.297340e+00
         8         4       -1.473673e+00
         9         4       -9.027748e-01
        10         4        6.420609e-01
        11         4        5.807417e-01
        12         4        8.629844e-01
        13         4        2.557029e-01
        14         4       -4.241742e-01
        15         4        1.366397e+00
        16         4       -1.764786e+00
        17         4        7.215231e-02
        18         4        7.691891e-01
        19         4        1.547917e-01
        20         4       -7.522581e-01
        21         4       -2.255828e-01
        22         4       -1.222304e-01
        23         4        2.055127e-01
        24         4       -1.932215e-01
        25         4        1.926946e-01
        26         4        3.484118e-01
        27         4        1.914462e+00
        28         4       -1.396824e-01
        29         4        4.150972e-01
        30         4        3.518764e-01
        31         4       -1.572321e-01
        32         4       -7.885200e-01
        33         4        2.221561e+00
        34         4       -2.225860e+00
        35         4        4.637259e-01
        36         4        6.635357e-01
        37         4        9.769031e-01
        38         4       -1.342032e+00
        39         4       -1.421666e+00
        40         4       -6.378627e-01
        41         4       -3.951782e-01
        42         4        1.230336e-01
        43         4        1.218266e-01
        44         4        2.974568e+00
        45         4       -1.210368e+00
        46         4        1.152897e+00
        47         4       -9.491889e-01
        48         4       -1.219522e-01
        49         4        2.402035e-01
        50         4        3.346810e-01
        51         4        5.101952e-01
        52         4       -1.081234e+00
        53         4        2.633687e+00
        54         4       -1.193113e+00
        55         4        3.446915e-01
        56         4        8.509697e-01
        57         4       -1.604879e+00
        58         4        7.599624e-01
        59         4        8.566431e-01
        60         4       -9.620916e-01
        61         4        9.355395e-01
        62         4       -9.609619e-01
        63         4        6.095461e-01
        64         4        1.371090e+00
        65         4       -6.245215e-01
        66         4       -8.315278e-01
        67         4        4.493487e-01
        68         4        1.697423e+00
        69         4       -6.741314e-02
        70         4       -4.468728e-01
        71         4        2.981847e-01
        72         4        1.486805e-01
        73         4       -1.196519e+00
        74         4        2.242461e-01
        75         4        1.466711e+00
        76         4        2.338710e+00
        77         4        7.052029e-01
        78         4       -4.782014e-01
        79         4       -1.984545e+00
        80         4        1.768566e+00
        81         4        1.844056e+00
        82         4       -2.948108e-01
        83         4       -1.088559e+00
        84         4        9.231339e-01
        85         4       -1.607113e+00
        86         4       -4.183403e-01
        87         4       -8.673059e-01
        88         4       -1.532946e+00
        89         4       -4.165182e-01
        90         4        3.518938e-01
        91         4       -1.394457e+00
        92         4        2.852544e-01
        93         4       -7.488393e-01
        94         4        2.675208e-01
        95         4        1.483977e+00
        96         4       -1.572728e-01
        97         4        2.919829e-01
        98         4       -1.035419e+00
        99         4       -6.199376e-01
       100         4        5.125601e-01
         1         5        2.008984e+00
         2         5       -1.388631e-01
         3         5        3.892671e-01
         4         5        8.522373e-01
         5         5       -1.525202e+00
         6         5       -2.023701e+00
         7         5        5.582331e-01
         8         5       -2.735095e-01
         9         5       -8.924488e-01
        10         5        2.231921e+00
        11         5       -3.536606e-01
        12         5       -2.650406e+00
        13         5        1.570542e+00
        14         5        4.631556e-01
        15         5        1.022218e+00
        16         5       -1.180129e-01
        17         5        4.963195e-01
        18         5       -1.261427e+00
        19         5       -1.067400e+00
        20         5        1.082679e+00
        21         5        1.502265e+00
        22         5        9.933962e-01
        23         5        4.505802e-01
        24         5        3.916077e-01
        25         5        4.710135e-02
        26         5       -5.933548e-01
        27         5        8.320816e-01
        28         5        1.446642e+00
        29         5        3.534737e-01
        30         5       -6.809440e-01
        31         5        1.110108e+00
        32         5        1.092695e+00
        33         5       -2.241190e-01
        34         5        7.922162e-01
        35         5       -7.606264e-01
        36         5        6.329651e-01
        37         5        8.841524e-01
        38         5       -9.227526e-02
        39         5       -9.705438e-01
        40         5        7.073784e-01
        41         5        1.562668e+00
        42         5        1.951124e+00
        43         5       -1.152459e+00
        44         5        1.029626e+00
        45         5       -4.528179e-01
        46         5        8.085217e-01
        47         5        8.707970e-02
        48         5       -2.665566e-01
        49         5        3.515758e-01
        50         5        1.577872e+00
        51         5        1.247823e+00
        52         5        1.572455e+00
        53         5       -9.046605e-01
        54         5        2.302520e-01
        55         5       -7.021602e-01
        56         5       -1.007811e+00
        57         5        7.314590e-01
        58         5       -1.796159e+00
        59         5        2.637532e+00
        60         5       -1.176260e+00
        61         5       -2.263484e+00
        62         5        2.147200e+00
        63         5        1.553890e+00
        64         5       -9.804455e-02
        65         5       -5.584467e-01
        66         5       -1.372512e+00
        67         5       -2.253093e+00
        68         5       -1.563154e-01
        69         5        4.447693e-01
        70         5        2.539237e-01
        71         5        4.971395e-01
        72         5       -6.227317e-01
        73         5        1.353738e+00
        74         5        5.346192e-01
        75         5        9.867997e-02
        76         5       -9.101975e-01
        77         5        2.172996e-01
        78         5        1.266272e+00
        79         5        5.520617e-01
        80         5        6.573295e-01
        81         5        6.787940e-01
        82         5        8.245054e-01
        83         5       -1.255589e-01
        84         5       -1.380985e-01
        85         5       -2.017547e-01
        86         5       -1.004749e+00
        87         5       -1.115791e-01
        88         5       -4.199929e-01
        89         5        3.957301e-01
        90         5       -1.565853e+00
        91         5        1.851240e+00
        92         5       -7.609045e-02
        93         5        9.407323e-02
        94         5       -7.158949e-01
        95         5       -2.554326e-01
        96         5       -7.208403e-01
        97         5        1.656602e+00
        98         5       -4.149660e-01
        99         5        1.083113e+00
       100         5        9.031622e-02
;

param theta:=
    1       -4.321313e-01
    2        2.102076e+00
    3       -1.123588e+00
    4        1.078163e+00
    5       -2.392444e-02
;
param X_true:=
    1        4.131829e-01
    2       -4.675982e+00
    3       -1.058876e+00
    4       -4.281463e+00
    5        3.169068e-01
    6       -7.759378e-01
    7       -7.424230e-01
    8       -4.469421e-01
    9       -3.585449e+00
   10        1.031637e+00
   11        4.683363e-01
   12       -2.429005e+00
   13        2.755023e+00
   14        1.067989e+00
   15        4.288640e+00
   16       -3.490247e+00
   17        2.502043e-01
   18       -4.305877e+00
   19        1.780860e+00
   20       -2.405341e+00
   21        3.165487e+00
   22       -1.582560e+00
   23        3.197683e+00
   24        2.007097e+00
   25       -8.257432e-01
   26        4.514965e+00
   27        1.585925e+00
   28       -7.541674e-01
   29        7.103299e-02
   30       -3.395671e+00
   31       -9.231491e-01
   32       -5.035099e+00
   33        4.520649e+00
   34       -3.400716e-01
   35        1.684063e+00
   36        1.561038e-01
   37        7.353716e-01
   38       -3.930524e+00
   39       -3.431944e+00
   40       -1.679027e+00
   41       -7.548875e-01
   42        3.651637e+00
   43       -2.918850e+00
   44        8.377943e+00
   45       -4.856641e-01
   46        2.103028e+00
   47       -3.736007e-03
   48       -1.391376e+00
   49       -5.887225e+00
   50        3.406213e-01
   51        1.614006e+00
   52       -1.933721e+00
   53        2.571461e+00
   54       -6.487141e+00
   55        3.121276e+00
   56        8.436514e+00
   57       -4.915811e+00
   58       -2.086306e+00
   59        1.165465e+00
   60       -1.679335e+00
   61        1.833209e+00
   62        3.024138e-01
   63       -1.516793e+00
   64        1.120381e+00
   65        7.618042e-01
   66       -1.132698e+00
   67        4.683248e+00
   68        1.079076e+00
   69        1.314165e+00
   70       -2.314129e+00
   71       -3.169284e+00
   72       -3.795900e+00
   73        3.235413e+00
   74       -3.847790e-01
   75       -1.966585e-01
   76        7.393341e+00
   77       -4.530244e-01
   78       -2.227535e+00
   79       -1.840437e-01
   80       -1.584731e+00
   81       -2.694974e+00
   82        3.594263e+00
   83       -5.313185e-02
   84        1.433864e-01
   85        1.414761e+00
   86       -4.360028e+00
   87        2.761968e+00
   88       -1.790108e+00
   89       -4.640613e-01
   90        1.823025e+00
   91       -6.912513e-01
   92        3.353028e+00
   93        3.913714e+00
   94       -5.847738e+00
   95        8.078784e+00
   96       -6.939189e-01
   97        3.530477e+00
   98       -2.707759e-01
   99        2.868340e+00
  100        6.410264e-02
;
param X:=
    1       -2.442847e-01
    2       -4.675982e+00
    3       -1.058876e+00
    4       -4.281463e+00
    5        3.169068e-01
    6       -7.759378e-01
    7        6.488977e-02
    8       -4.469421e-01
    9       -3.585449e+00
   10        9.896991e-01
   11        1.354449e-01
   12       -2.429005e+00
   13        2.755023e+00
   14       -4.847078e-01
   15        4.288640e+00
   16        3.421800e-01
   17        4.856617e-01
   18       -4.305877e+00
   19        9.209371e-02
   20       -2.405341e+00
   21        3.165487e+00
   22       -1.582560e+00
   23        3.197683e+00
   24        2.007097e+00
   25        1.515524e+00
   26        4.514965e+00
   27        1.585925e+00
   28       -8.360501e-01
   29        1.111247e+00
   30        7.855820e-02
   31       -9.231491e-01
   32       -5.035099e+00
   33        6.622322e-01
   34        1.150987e+00
   35        1.684063e+00
   36        1.561038e-01
   37        7.353716e-01
   38       -3.930524e+00
   39        2.553537e+00
   40       -2.258848e-02
   41       -4.766235e-02
   42       -1.013494e+00
   43       -8.372193e-01
   44        8.377943e+00
   45       -6.157296e-01
   46        2.103028e+00
   47       -3.736007e-03
   48       -1.391376e+00
   49       -2.627317e-01
   50        3.406213e-01
   51        1.614006e+00
   52        9.901999e-01
   53        7.161586e-01
   54        2.211942e+00
   55       -1.136249e+00
   56        8.436514e+00
   57        1.055178e+00
   58       -2.086306e+00
   59        1.687655e+00
   60       -1.679335e+00
   61        1.833209e+00
   62        3.024138e-01
   63       -1.516793e+00
   64        1.120381e+00
   65        2.207624e-01
   66       -1.132698e+00
   67       -2.515380e+00
   68        1.079076e+00
   69        4.726345e-02
   70       -2.314129e+00
   71       -3.169284e+00
   72       -3.795900e+00
   73        3.235413e+00
   74       -3.847790e-01
   75       -1.966585e-01
   76        7.393341e+00
   77        2.959672e-01
   78       -6.760777e-01
   79        6.761488e-01
   80       -1.584731e+00
   81        1.762744e-01
   82        8.922206e-01
   83       -4.225832e-01
   84        1.433864e-01
   85        1.077543e-01
   86       -4.360028e+00
   87        2.761968e+00
   88        1.036338e-01
   89       -4.640613e-01
   90        1.823025e+00
   91       -6.912513e-01
   92        3.353028e+00
   93        3.913714e+00
   94       -5.847738e+00
   95        8.078784e+00
   96       -6.939189e-01
   97       -7.697273e-01
   98       -2.707759e-01
   99        2.868340e+00
  100        2.346514e-01
;
param outliervec:=
    1    1
    2    0
    3    0
    4    0
    5    0
    6    0
    7    1
    8    0
    9    0
   10    1
   11    1
   12    0
   13    0
   14    1
   15    0
   16    1
   17    1
   18    0
   19    1
   20    0
   21    0
   22    0
   23    0
   24    0
   25    1
   26    0
   27    0
   28    1
   29    1
   30    1
   31    0
   32    0
   33    1
   34    1
   35    0
   36    0
   37    0
   38    0
   39    1
   40    1
   41    1
   42    1
   43    1
   44    0
   45    1
   46    0
   47    0
   48    0
   49    1
   50    0
   51    0
   52    1
   53    1
   54    1
   55    1
   56    0
   57    1
   58    0
   59    1
   60    0
   61    0
   62    0
   63    0
   64    0
   65    1
   66    0
   67    1
   68    0
   69    1
   70    0
   71    0
   72    0
   73    0
   74    0
   75    0
   76    0
   77    1
   78    1
   79    1
   80    0
   81    1
   82    1
   83    1
   84    0
   85    1
   86    0
   87    0
   88    1
   89    0
   90    0
   91    0
   92    0
   93    0
   94    0
   95    0
   96    0
   97    1
   98    0
   99    0
  100    1
;